NAME : P-n16-k8
COMMENT : (Augerat et al, No of trucks: 2, Optimal value: 450)
TYPE : CVRP
DIMENSION : 4
EDGE_WEIGHT_TYPE : EUC_2D
CAPACITY : 35
NODE_COORD_SECTION
1 30 40
2 37 52
3 49 49
4 52 64
DEMAND_SECTION
1 0
2 11
3 30
4 16
DEPOT_SECTION
 1
 -1
EOF
